
  12    4
  10   10   10   10

   0   0   0   0   0   5 2 3 6 7 11 
   6  10  10  10  10   3 10 9 5 
   6  10  10  10  10   2 5 4 
   6  10  10  10  10   2 9 8 
   9  10  10  10  10   1 8 
   4  10  10  10  10   1 8 
   2  10  10  10  10   1 8 
  10  10  10  10  10   1 12
   2  10  10  10  10   1 12
   9  10  10  10  10   1 12
   5  10  10  10  10   1 12
   0   0   0   0   0   0 
